100
128
12
11
56
53
49
26
58
30
40
39
61
22
43
52
8
22
60
21
20
19
3
36
31
18
48
5
55
7
52
44
25
27
30
41
56
58
15
23
62
64
18
47
34
51
25
44
3
39
36
37
35
54
16
43
15
44
15
57
58
46
14
31
60
19
28
36
19
16
17
64
26
22
44
19
60
55
14
33
23
16
22
52
62
54
22
57
41
58
19
30
37
46
45
61
40
60
33
37
41
45